\ Model RDWM
\ LP format - for model browsing. Use MPS format to capture full model detail.
Minimize
  Artificial
Subject To
 Capacity_Cons: - Artificial = 2
 Assignment_Cons: - Artificial = 1
 Assignment_Cons: - Artificial = 1
 Assignment_Cons: - Artificial = 1
 Assignment_Cons: - Artificial = 1
 Assignment_Cons: - Artificial = 1
 convex_cons: = 1
Bounds
End
